param n := 3;
set S[1] := 1 2 3 4 5;
set S[2] := 1 2 3 4 5;
set S[3] := 1 2 3 4 5;

param A :=
[*,1,1,1]  1 46 2 67 3 51
[*,2,1,1]  1 39 2 45 3 73
[*,3,1,1]  1 74 2 51 3 55
[*,4,1,1]  1 51 2 55 3 54
[*,5,1,1]  1 44 2 44 3 62
[*,1,2,1]  1 53 2 37 3 77
[*,2,2,1]  1 28 2 53 3 76
[*,3,2,1]  1 44 2 60 3 76
[*,4,2,1]  1 48 2 60 3 49
[*,5,2,1]  1 56 2 49 3 71
[*,1,3,1]  1 45 2 51 3 54
[*,2,3,1]  1 41 2 55 3 66
[*,3,3,1]  1 52 2 49 3 59
[*,4,3,1]  1 62 2 61 3 47
[*,5,3,1]  1 5 2 90 3 83
[*,1,4,1]  1 32 2 72 3 78
[*,2,4,1]  1 61 2 41 3 36
[*,3,4,1]  1 49 2 53 3 46
[*,4,4,1]  1 59 2 68 3 56
[*,5,4,1]  1 58 2 17 3 64
[*,1,5,1]  1 46 2 53 3 45
[*,2,5,1]  1 55 2 46 3 87
[*,3,5,1]  1 60 2 43 3 51
[*,4,5,1]  1 37 2 91 3 69
[*,5,5,1]  1 40 2 62 3 64
[*,1,1,2]  1 36 2 54 3 59
[*,2,1,2]  1 35 2 87 3 69
[*,3,1,2]  1 64 2 31 3 58
[*,4,1,2]  1 67 2 24 3 61
[*,5,1,2]  1 74 2 43 3 66
[*,1,2,2]  1 65 2 64 3 57
[*,2,2,2]  1 46 2 62 3 47
[*,3,2,2]  1 82 2 35 3 53
[*,4,2,2]  1 35 2 72 3 40
[*,5,2,2]  1 71 2 41 3 62
[*,1,3,2]  1 54 2 36 3 63
[*,2,3,2]  1 55 2 45 3 69
[*,3,3,2]  1 25 2 78 3 60
[*,4,3,2]  1 55 2 62 3 34
[*,5,3,2]  1 52 2 55 3 70
[*,1,4,2]  1 65 2 64 3 40
[*,2,4,2]  1 27 2 63 3 55
[*,3,4,2]  1 74 2 27 3 54
[*,4,4,2]  1 71 2 46 3 44
[*,5,4,2]  1 63 2 71 3 31
[*,1,5,2]  1 66 2 85 3 48
[*,2,5,2]  1 57 2 84 3 35
[*,3,5,2]  1 39 2 60 3 81
[*,4,5,2]  1 2 2 59 3 72
[*,5,5,2]  1 62 2 31 3 54
[*,1,1,3]  1 50 2 67 3 43
[*,2,1,3]  1 51 2 31 3 71
[*,3,1,3]  1 52 2 57 3 52
[*,4,1,3]  1 55 2 44 3 65
[*,5,1,3]  1 46 2 50 3 61
[*,1,2,3]  1 41 2 51 3 47
[*,2,2,3]  1 47 2 54 3 63
[*,3,2,3]  1 37 2 66 3 64
[*,4,2,3]  1 36 2 63 3 40
[*,5,2,3]  1 36 2 47 3 69
[*,1,3,3]  1 52 2 80 3 39
[*,2,3,3]  1 46 2 70 3 46
[*,3,3,3]  1 56 2 33 3 34
[*,4,3,3]  1 68 2 51 3 65
[*,5,3,3]  1 51 2 54 3 61
[*,1,4,3]  1 56 2 73 3 48
[*,2,4,3]  1 50 2 93 3 53
[*,3,4,3]  1 45 2 54 3 26
[*,4,4,3]  1 69 2 62 3 75
[*,5,4,3]  1 48 2 53 3 50
[*,1,5,3]  1 65 2 77 3 57
[*,2,5,3]  1 57 2 60 3 53
[*,3,5,3]  1 36 2 45 3 69
[*,4,5,3]  1 62 2 79 3 48
[*,5,5,3]  1 73 2 59 3 50
[*,1,1,4]  1 60 2 79 3 57
[*,2,1,4]  1 70 2 53 3 67
[*,3,1,4]  1 72 2 49 3 22
[*,4,1,4]  1 41 2 74 3 86
[*,5,1,4]  1 49 2 66 3 63
[*,1,2,4]  1 37 2 49 3 46
[*,2,2,4]  1 76 2 52 3 28
[*,3,2,4]  1 47 2 64 3 49
[*,4,2,4]  1 30 2 55 3 71
[*,5,2,4]  1 40 2 85 3 23
[*,1,3,4]  1 58 2 59 3 48
[*,2,3,4]  1 43 2 49 3 43
[*,3,3,4]  1 38 2 31 3 53
[*,4,3,4]  1 57 2 42 3 82
[*,5,3,4]  1 75 2 45 3 81
[*,1,4,4]  1 7 2 53 3 75
[*,2,4,4]  1 43 2 37 3 47
[*,3,4,4]  1 50 2 37 3 77
[*,4,4,4]  1 59 2 31 3 46
[*,5,4,4]  1 16 2 53 3 91
[*,1,5,4]  1 31 2 50 3 46
[*,2,5,4]  1 49 2 44 3 51
[*,3,5,4]  1 100 2 17 3 41
[*,4,5,4]  1 58 2 46 3 61
[*,5,5,4]  1 65 2 43 3 43
[*,1,1,5]  1 56 2 43 3 44
[*,2,1,5]  1 49 2 56 3 52
[*,3,1,5]  1 54 2 44 3 79
[*,4,1,5]  1 37 2 59 3 37
[*,5,1,5]  1 52 2 60 3 72
[*,1,2,5]  1 34 2 53 3 72
[*,2,2,5]  1 49 2 47 3 41
[*,3,2,5]  1 47 2 67 3 58
[*,4,2,5]  1 45 2 60 3 54
[*,5,2,5]  1 59 2 68 3 1
[*,1,3,5]  1 58 2 42 3 69
[*,2,3,5]  1 60 2 59 3 46
[*,3,3,5]  1 53 2 72 3 48
[*,4,3,5]  1 58 2 24 3 74
[*,5,3,5]  1 53 2 54 3 67
[*,1,4,5]  1 70 2 48 3 60
[*,2,4,5]  1 55 2 74 3 38
[*,3,4,5]  1 36 2 53 3 75
[*,4,4,5]  1 47 2 48 3 60
[*,5,4,5]  1 69 2 56 3 47
[*,1,5,5]  1 38 2 62 3 48
[*,2,5,5]  1 60 2 63 3 46
[*,3,5,5]  1 71 2 26 3 54
[*,4,5,5]  1 41 2 41 3 65
[*,5,5,5]  1 54 2 50 3 30;

param U :=  1 98.0 2 76.0 3 90.0;
#param pu :=  1 100.0 2 93.0 3 91.0;
#param pl :=  1 2.0 2 17.0 3 1.0;
